JulietBench/Juliet_Based_Patch_Bench/qemu/CWE-189-Numeric-Errors/CVE_2015_8504_4c65fed8bdf96780735dbdb92a8bd0d6b6526cc3/Resultset_pixel_format_Snippet_patch1EQ.smt2
; benchmark generated from python API
(set-info :status unknown)
(declare-fun R () (_ BitVec 32))
(declare-fun rdi () (_ BitVec 64))
(assert
 (let (($x50 (= (_ bv255 32) R)))
 (let ((?x6 ((_ extract 31 0) rdi)))
 (let (($x10 (= (_ bv0 32) ?x6)))
 (let (($x51 (and $x10 $x50)))
 (let (($x47 (= R ?x6)))
 (let (($x36 (and (distinct (_ bv0 32) ?x6) true)))
 (let (($x48 (and $x36 $x47)))
 (let (($x52 (or $x48 $x51)))
 (and $x47 $x52))))))))))
(check-sat)
